1691856
34,67,7,35,14,57,8,16,26,44,1,47,3,19,64,12,53,0,18,48,22,5,10,65,25,54,33,45,42,6,66,63,37,21,51,32,56,17,9,13,43,30,20,40,29,24,28,59,4,39,55,31,11,41,2,60,23,46,62,15,58,27,49,52,36,61,38,50
